(set-logic QF_S)
(declare-fun var0 () String)
(declare-fun var1 () String)
(declare-fun var2 () String)
(declare-fun var3 () String)
(declare-fun var4 () String)
(declare-fun var5 () String)
(declare-fun var6 () String)
(declare-fun var7 () String)
(declare-fun var8 () String)
(declare-fun var9 () String)
(declare-fun var10 () String)
(declare-fun var11 () String)
(declare-fun var12 () String)
(declare-fun var13 () String)
(declare-fun var14 () String)
(declare-fun var15 () String)
(declare-fun var16 () String)
(declare-fun var17 () String)
(declare-fun var18 () String)
(declare-fun var19 () String)
(declare-fun var20 () String)
(declare-fun var21 () String)
(declare-fun var22 () String)
(declare-fun var23 () String)
(declare-fun var24 () String)
(declare-fun var25 () String)
(declare-fun var26 () String)
(declare-fun var27 () String)
(declare-fun var28 () String)
(declare-fun var29 () String)
(declare-fun var30 () String)
(declare-fun var31 () String)
(declare-fun var32 () String)
(declare-fun var33 () String)
(declare-fun var34 () String)
(declare-fun var35 () String)
(declare-fun var36 () String)
(declare-fun var37 () String)
(declare-fun var38 () String)
(declare-fun var39 () String)
(declare-fun var40 () String)
(declare-fun var41 () String)
(declare-fun var42 () String)
(declare-fun var43 () String)
(declare-fun var44 () String)
(declare-fun var45 () String)
(declare-fun var46 () String)
(declare-fun var47 () String)
(declare-fun var48 () String)
(declare-fun var49 () String)
(declare-fun var50 () String)
(declare-fun var51 () String)
(declare-fun var52 () String)
(declare-fun var53 () String)
(declare-fun var54 () String)
(declare-fun var55 () String)
(declare-fun var56 () String)
(declare-fun var57 () String)
(declare-fun var58 () String)
(declare-fun var59 () String)
(declare-fun var60 () String)
(assert (= var0 (str.++ var1 var2)))
(assert (= var2 (str.++ var3 var4)))
(assert (= var4 (str.++ var5 var6)))
(assert (= var6 (str.++ var7 var8)))
(assert (= var8 (str.++ var9 var10)))
(assert (= var10 (str.++ var11 var12)))
(assert (= var12 (str.++ var13 var14)))
(assert (= var14 (str.++ var15 var16)))
(assert (= var16 (str.++ var17 var18)))
(assert (= var18 (str.++ var19 var20)))
(assert (= var20 (str.++ var21 var22)))
(assert (= var22 (str.++ var23 var24)))
(assert (= var24 (str.++ var25 var26)))
(assert (= var26 (str.++ var27 var28)))
(assert (= var28 (str.++ var29 var30)))
(assert (= var30 (str.++ var31 var32)))
(assert (= var32 (str.++ var33 var34)))
(assert (= var34 (str.++ var35 var36)))
(assert (= var36 (str.++ var37 var38)))
(assert (= var38 (str.++ var39 var40)))
(assert (= var40 (str.++ var41 var42)))
(assert (= var42 (str.++ var43 var44)))
(assert (= var44 (str.++ var45 var46)))
(assert (= var46 (str.++ var47 var48)))
(assert (= var48 (str.++ var49 var50)))
(assert (= var50 (str.++ var51 var52)))
(assert (= var52 (str.++ var53 var54)))
(assert (= var54 (str.++ var55 var56)))
(assert (= var56 (str.++ var57 var58)))
(assert (= var58 (str.++ var59 var60)))
(assert (= var0 "solution"))
(assert (= "J" (str.at var0 879)))
(assert (= "P" (str.at var58 903)))
(assert (= "I" (str.at var37 791)))
(assert (= "2" (str.at var58 952)))
(assert (= "x" (str.at var9 993)))
(assert (= "Q" (str.at var36 128)))
(assert (= "s" (str.at var57 237)))
(assert (= "G" (str.at var30 905)))
(assert (= "m" (str.at var56 15)))
(assert (= "R" (str.at var12 250)))
(assert (= "K" (str.at var33 309)))
(assert (= "_" (str.at var53 893)))
(assert (= "|" (str.at var28 678)))
(assert (= "(" (str.at var7 402)))
(assert (= "Q" (str.at var24 916)))
(assert (= "(" (str.at var47 146)))
(assert (= "m" (str.at var26 5)))
(assert (= "M" (str.at var19 800)))
(assert (= "2" (str.at var54 390)))
(assert (= "m" (str.at var24 815)))
(assert (= "$" (str.at var36 564)))
(assert (= "l" (str.at var20 926)))
(assert (= "o" (str.at var37 589)))
(assert (= "F" (str.at var21 200)))
(assert (= "P" (str.at var26 487)))
(assert (= "q" (str.at var46 28)))
(assert (= "(" (str.at var9 76)))
(assert (= "[" (str.at var4 909)))
(assert (= "B" (str.at var21 362)))
(assert (= ">" (str.at var27 509)))
(assert (= "e" (str.at var38 591)))
(assert (= "5" (str.at var11 529)))
(assert (= "7" (str.at var59 983)))
(assert (= "L" (str.at var23 485)))
(assert (= "r" (str.at var49 60)))
(assert (= "s" (str.at var60 620)))
(assert (= "[" (str.at var44 361)))
(assert (= "p" (str.at var36 998)))
(assert (= "9" (str.at var59 285)))
(assert (= "g" (str.at var26 309)))
(assert (= "l" (str.at var46 978)))
(assert (= "w" (str.at var40 904)))
(assert (= "x" (str.at var24 553)))
(assert (= "y" (str.at var20 319)))
(assert (= "W" (str.at var35 954)))
(assert (= "m" (str.at var30 916)))
(assert (= "B" (str.at var39 543)))
(assert (= "^" (str.at var43 68)))
(assert (= "h" (str.at var40 739)))
(assert (= "K" (str.at var10 784)))
(assert (= "F" (str.at var13 194)))
(assert (= "`" (str.at var51 645)))
(assert (= ">" (str.at var11 201)))
(assert (= "=" (str.at var47 753)))
(assert (= "c" (str.at var23 891)))
(assert (= "{" (str.at var16 958)))
(assert (= "F" (str.at var22 45)))
(assert (= "F" (str.at var56 466)))
(assert (= ";" (str.at var13 725)))
(assert (= "O" (str.at var21 203)))
(assert (= "R" (str.at var49 800)))
(assert (= "h" (str.at var59 901)))
(assert (= "@" (str.at var0 552)))
(assert (= "." (str.at var55 400)))
(assert (= "A" (str.at var44 18)))
(assert (= "X" (str.at var57 573)))
(assert (= "e" (str.at var49 190)))
(assert (= "," (str.at var15 913)))
(assert (= "C" (str.at var19 119)))
(assert (= "5" (str.at var14 670)))
(assert (= "q" (str.at var0 884)))
(assert (= "!" (str.at var53 32)))
(assert (= "w" (str.at var59 549)))
(assert (= "W" (str.at var48 919)))
(assert (= "p" (str.at var0 245)))
(assert (= "M" (str.at var2 573)))
(assert (= "4" (str.at var14 674)))
(assert (= "z" (str.at var53 606)))
(assert (= "m" (str.at var8 102)))
(assert (= "n" (str.at var42 568)))
(assert (= "1" (str.at var30 798)))
(assert (= "/" (str.at var1 90)))
(assert (= "[" (str.at var15 620)))
(assert (= "g" (str.at var55 928)))
(assert (= "h" (str.at var48 461)))
(assert (= """" (str.at var33 304)))
(assert (= "w" (str.at var50 593)))
(assert (= "?" (str.at var23 381)))
(assert (= "w" (str.at var41 24)))
(assert (= "d" (str.at var1 379)))
(assert (= "S" (str.at var10 303)))
(assert (= "A" (str.at var41 696)))
(assert (= "2" (str.at var20 943)))
(assert (= "1" (str.at var16 445)))
(assert (= ">" (str.at var40 985)))
(assert (= "6" (str.at var4 298)))
(assert (= "8" (str.at var51 783)))
(assert (= "z" (str.at var27 524)))
(assert (= "_" (str.at var50 751)))
(assert (= "b" (str.at var37 351)))
(assert (= "?" (str.at var47 85)))
(assert (= "%" (str.at var60 826)))
(assert (= "|" (str.at var9 506)))
(assert (= "z" (str.at var26 537)))
(assert (= "%" (str.at var36 484)))
(assert (= "Q" (str.at var3 60)))
(assert (= "R" (str.at var3 306)))
(assert (= "`" (str.at var44 631)))
(assert (= "2" (str.at var26 602)))
(assert (= "e" (str.at var13 217)))
(assert (= "L" (str.at var52 519)))
(assert (= "L" (str.at var41 624)))
(assert (= "~" (str.at var48 807)))
(assert (= "|" (str.at var44 483)))
(assert (= "2" (str.at var42 867)))
(assert (= "[" (str.at var29 368)))
(assert (= "J" (str.at var28 646)))
(assert (= "8" (str.at var52 825)))
(assert (= "I" (str.at var20 633)))
(assert (= "$" (str.at var11 548)))
(assert (= "3" (str.at var20 579)))
(assert (= "V" (str.at var54 264)))
(assert (= "E" (str.at var3 495)))
(assert (= ";" (str.at var32 841)))
(assert (= "L" (str.at var15 77)))
(assert (= "." (str.at var1 634)))
(assert (= "f" (str.at var42 46)))
(assert (= "S" (str.at var2 400)))
(assert (= "9" (str.at var51 845)))
(assert (= "2" (str.at var58 302)))
(assert (= "T" (str.at var2 470)))
(assert (= "+" (str.at var38 714)))
(assert (= "i" (str.at var44 947)))
(assert (= "j" (str.at var31 477)))
(assert (= ":" (str.at var44 918)))
(assert (= ";" (str.at var36 645)))
(assert (= "+" (str.at var15 876)))
(assert (= "z" (str.at var25 531)))
(assert (= "z" (str.at var44 187)))
(assert (= "c" (str.at var9 569)))
(assert (= "m" (str.at var41 941)))
(assert (= "`" (str.at var22 121)))
(assert (= "'" (str.at var35 619)))
(assert (= "p" (str.at var50 951)))
(assert (= "K" (str.at var56 624)))
(assert (= "x" (str.at var56 288)))
(assert (= "?" (str.at var2 696)))
(assert (= "k" (str.at var39 515)))
(assert (= "+" (str.at var51 955)))
(assert (= "t" (str.at var11 62)))
(assert (= "C" (str.at var16 573)))
(assert (= "4" (str.at var14 724)))
(assert (= "=" (str.at var24 859)))
(assert (= "0" (str.at var20 191)))
(assert (= ">" (str.at var12 391)))
(assert (= "S" (str.at var53 72)))
(assert (= ")" (str.at var17 573)))
(assert (= "{" (str.at var26 899)))
(assert (= "{" (str.at var27 127)))
(assert (= "#" (str.at var32 828)))
(assert (= "K" (str.at var1 132)))
(assert (= "i" (str.at var26 933)))
(assert (= "~" (str.at var48 231)))
(assert (= "{" (str.at var19 536)))
(assert (= "A" (str.at var40 75)))
(assert (= "?" (str.at var29 120)))
(assert (= "9" (str.at var28 453)))
(assert (= "]" (str.at var39 49)))
(assert (= "e" (str.at var29 343)))
(assert (= "b" (str.at var49 667)))
(assert (= "." (str.at var51 936)))
(assert (= "Z" (str.at var43 431)))
(assert (= "%" (str.at var48 143)))
(assert (= "*" (str.at var53 701)))
(assert (= "V" (str.at var4 78)))
(assert (= "S" (str.at var26 490)))
(assert (= "g" (str.at var36 887)))
(assert (= "'" (str.at var12 588)))
(assert (= "r" (str.at var25 611)))
(assert (= "B" (str.at var34 77)))
(assert (= "z" (str.at var11 774)))
(assert (= "," (str.at var38 419)))
(assert (= "6" (str.at var45 846)))
(assert (= "q" (str.at var7 620)))
(assert (= "&" (str.at var43 838)))
(assert (= "(" (str.at var41 704)))
(assert (= "9" (str.at var52 871)))
(assert (= "X" (str.at var28 154)))
(assert (= ">" (str.at var58 475)))
(assert (= "Z" (str.at var59 231)))
(assert (= "d" (str.at var1 630)))
(assert (= "8" (str.at var2 973)))
(assert (= "#" (str.at var31 800)))
(assert (= "W" (str.at var56 39)))
(assert (= "l" (str.at var37 440)))
(assert (= "G" (str.at var19 609)))
(assert (= "m" (str.at var14 187)))
(assert (= "M" (str.at var10 165)))
(assert (= "G" (str.at var47 369)))
(assert (= "O" (str.at var43 87)))
(assert (= "c" (str.at var21 785)))
(assert (= "_" (str.at var8 785)))
(assert (= "I" (str.at var4 832)))
(assert (= "F" (str.at var33 691)))
(assert (= "Z" (str.at var33 761)))
(assert (= "{" (str.at var25 460)))
(assert (= "," (str.at var1 533)))
(assert (= "<" (str.at var6 80)))
(assert (= "_" (str.at var21 206)))
(assert (= "6" (str.at var55 831)))
(assert (= "J" (str.at var46 13)))
(assert (= "G" (str.at var10 712)))
(assert (= "h" (str.at var49 331)))
(assert (= "<" (str.at var41 429)))
(assert (= "^" (str.at var24 120)))
(assert (= "k" (str.at var53 479)))
(assert (= "<" (str.at var55 153)))
(assert (= "5" (str.at var32 889)))
(assert (= "b" (str.at var54 603)))
(assert (= "v" (str.at var12 642)))
(assert (= "s" (str.at var10 918)))
(assert (= "?" (str.at var60 834)))
(assert (= "`" (str.at var33 563)))
(assert (= "I" (str.at var54 48)))
(assert (= "i" (str.at var49 34)))
(assert (= "r" (str.at var34 349)))
(assert (= "8" (str.at var9 463)))
(assert (= "-" (str.at var18 602)))
(assert (= "." (str.at var43 669)))
(assert (= "9" (str.at var29 983)))
(assert (= "@" (str.at var20 230)))
(assert (= "9" (str.at var28 872)))
(assert (= "q" (str.at var14 551)))
(assert (= "&" (str.at var33 251)))
(assert (= "y" (str.at var2 142)))
(assert (= "1" (str.at var25 810)))
(assert (= "X" (str.at var58 811)))
(assert (= """" (str.at var7 601)))
(assert (= "w" (str.at var59 87)))
(assert (= "'" (str.at var51 446)))
(assert (= "w" (str.at var60 413)))
(assert (= "X" (str.at var50 720)))
(assert (= "U" (str.at var41 91)))
(assert (= "X" (str.at var39 427)))
(assert (= "7" (str.at var2 295)))
(assert (= "g" (str.at var4 860)))
(assert (= "T" (str.at var43 986)))
(assert (= "p" (str.at var17 337)))
(assert (= "j" (str.at var20 732)))
(assert (= "8" (str.at var26 974)))
(assert (= "%" (str.at var49 538)))
(assert (= "s" (str.at var52 556)))
(assert (= "#" (str.at var27 668)))
(assert (= "+" (str.at var46 67)))
(assert (= "k" (str.at var35 816)))
(assert (= "a" (str.at var8 59)))
(assert (= "O" (str.at var26 194)))
(assert (= "m" (str.at var52 434)))
(assert (= "$" (str.at var7 19)))
(assert (= "u" (str.at var22 704)))
(assert (= "D" (str.at var55 424)))
(assert (= "C" (str.at var42 198)))
(assert (= "8" (str.at var34 214)))
(assert (= "`" (str.at var16 938)))
(assert (= "H" (str.at var0 823)))
(assert (= "V" (str.at var34 369)))
(assert (= "s" (str.at var22 251)))
(assert (= "w" (str.at var17 160)))
(assert (= "q" (str.at var22 804)))
(assert (= "q" (str.at var5 151)))
(assert (= "~" (str.at var37 672)))
(assert (= "*" (str.at var58 824)))
(assert (= "{" (str.at var43 998)))
(assert (= "v" (str.at var16 218)))
(assert (= "1" (str.at var15 796)))
(assert (= "}" (str.at var19 606)))
(assert (= "m" (str.at var3 802)))
(assert (= "(" (str.at var36 330)))
(assert (= "R" (str.at var13 462)))
(assert (= "{" (str.at var3 708)))
(assert (= "6" (str.at var27 952)))
(assert (= "]" (str.at var57 293)))
(assert (= "N" (str.at var55 505)))
(assert (= "1" (str.at var3 735)))
(assert (= "E" (str.at var39 661)))
(assert (= "R" (str.at var50 639)))
(assert (= "b" (str.at var29 671)))
(assert (= "*" (str.at var4 749)))
(assert (= "C" (str.at var23 441)))
(assert (= "4" (str.at var48 157)))
(assert (= "P" (str.at var36 551)))
(assert (= "." (str.at var13 894)))
(assert (= "M" (str.at var53 732)))
(assert (= "H" (str.at var51 352)))
(assert (= "^" (str.at var9 414)))
(assert (= "j" (str.at var29 367)))
(assert (= "X" (str.at var4 941)))
(assert (= "7" (str.at var57 779)))
(assert (= "." (str.at var17 535)))
(assert (= "s" (str.at var29 842)))
(assert (= "0" (str.at var11 801)))
(assert (= "X" (str.at var29 286)))
(assert (= "0" (str.at var49 886)))
(assert (= "e" (str.at var15 182)))
(assert (= "q" (str.at var12 46)))
(assert (= ")" (str.at var0 123)))
(assert (= "$" (str.at var46 409)))
(assert (= "%" (str.at var55 85)))
(assert (= "'" (str.at var25 615)))
(assert (= "z" (str.at var9 267)))
(assert (= "G" (str.at var15 69)))
(assert (= "5" (str.at var60 629)))
(assert (= "e" (str.at var9 41)))
(assert (= "m" (str.at var12 215)))
(assert (= "Q" (str.at var58 483)))
(assert (= "i" (str.at var15 411)))
(assert (= """" (str.at var40 435)))
(assert (= "A" (str.at var52 68)))
(assert (= "$" (str.at var43 542)))
(assert (= "k" (str.at var33 639)))
(assert (= "A" (str.at var17 968)))
(assert (= "=" (str.at var26 201)))
(assert (= "y" (str.at var55 601)))
(assert (= "Q" (str.at var7 663)))
(assert (= "/" (str.at var47 100)))
(assert (= "." (str.at var48 731)))
(assert (= "!" (str.at var25 747)))
(assert (= "s" (str.at var59 204)))
(assert (= "z" (str.at var36 432)))
(assert (= "#" (str.at var19 654)))
(assert (= "d" (str.at var6 144)))
(assert (= "c" (str.at var0 972)))
(assert (= "f" (str.at var43 751)))
(assert (= "i" (str.at var16 953)))
(assert (= ")" (str.at var13 348)))
(assert (= "G" (str.at var54 951)))
(assert (= ">" (str.at var34 770)))
(assert (= "c" (str.at var52 926)))
(assert (= "E" (str.at var56 727)))
(assert (= "1" (str.at var38 908)))
(assert (= "X" (str.at var3 19)))
(assert (= "A" (str.at var22 338)))
(assert (= "c" (str.at var19 741)))
(assert (= "#" (str.at var46 827)))
(assert (= "|" (str.at var33 124)))
(assert (= "y" (str.at var2 182)))
(assert (= "2" (str.at var52 123)))
(assert (= "t" (str.at var28 411)))
(assert (= "T" (str.at var8 981)))
(assert (= "_" (str.at var57 593)))
(assert (= "$" (str.at var22 897)))
(assert (= "h" (str.at var56 145)))
(assert (= "m" (str.at var8 26)))
(assert (= "\\" (str.at var52 765)))
(assert (= "Y" (str.at var28 918)))
(assert (= "p" (str.at var16 253)))
(assert (= "P" (str.at var16 860)))
(assert (= "J" (str.at var2 888)))
(assert (= "v" (str.at var10 533)))
(assert (= "G" (str.at var30 978)))
(assert (= "Q" (str.at var5 139)))
(assert (= "n" (str.at var14 50)))
(assert (= "|" (str.at var46 843)))
(assert (= "F" (str.at var44 300)))
(assert (= "1" (str.at var18 383)))
(assert (= ")" (str.at var14 495)))
(assert (= "l" (str.at var26 565)))
(assert (= "." (str.at var4 650)))
(assert (= "k" (str.at var48 985)))
(assert (= "y" (str.at var10 660)))
(assert (= "r" (str.at var21 359)))
(assert (= "y" (str.at var7 816)))
(assert (= "T" (str.at var27 531)))
(assert (= "J" (str.at var1 742)))
(assert (= "t" (str.at var56 275)))
(assert (= "N" (str.at var47 48)))
(assert (= "u" (str.at var50 900)))
(assert (= "$" (str.at var57 911)))
(assert (= "6" (str.at var3 516)))
(assert (= "T" (str.at var39 840)))
(assert (= "[" (str.at var46 516)))
(assert (= "8" (str.at var32 862)))
(assert (= "O" (str.at var31 462)))
(assert (= ";" (str.at var59 859)))
(assert (= "6" (str.at var38 532)))
(assert (= "-" (str.at var27 302)))
(assert (= "l" (str.at var4 660)))
(assert (= "M" (str.at var8 514)))
(assert (= "M" (str.at var53 317)))
(assert (= "A" (str.at var26 616)))
(assert (= """" (str.at var38 140)))
(assert (= "5" (str.at var35 287)))
(assert (= "+" (str.at var27 887)))
(assert (= "}" (str.at var8 983)))
(assert (= "K" (str.at var44 507)))
(assert (= "R" (str.at var31 804)))
(assert (= "{" (str.at var56 412)))
(assert (= "B" (str.at var1 108)))
(assert (= "l" (str.at var47 144)))
(assert (= "$" (str.at var53 621)))
(assert (= "y" (str.at var55 179)))
(assert (= "R" (str.at var49 660)))
(assert (= "," (str.at var24 274)))
(assert (= "1" (str.at var33 30)))
(assert (= "*" (str.at var60 148)))
(assert (= "@" (str.at var46 290)))
(assert (= "<" (str.at var58 3)))
(assert (= "%" (str.at var16 827)))
(assert (= "B" (str.at var20 474)))
(assert (= "~" (str.at var34 329)))
(assert (= "N" (str.at var24 487)))
(assert (= "." (str.at var52 114)))
(assert (= "I" (str.at var57 686)))
(assert (= "M" (str.at var6 212)))
(assert (= "|" (str.at var5 662)))
(assert (= "," (str.at var29 64)))
(assert (= "q" (str.at var9 806)))
(assert (= "u" (str.at var54 767)))
(assert (= "F" (str.at var39 28)))
(assert (= "*" (str.at var29 81)))
(assert (= "i" (str.at var20 296)))
(assert (= "@" (str.at var57 927)))
(assert (= "j" (str.at var42 718)))
(assert (= "*" (str.at var34 331)))
(assert (= "_" (str.at var15 933)))
(assert (= "." (str.at var29 264)))
(assert (= "_" (str.at var44 558)))
(assert (= "9" (str.at var22 947)))
(assert (= "-" (str.at var23 675)))
(assert (= "#" (str.at var49 44)))
(assert (= "t" (str.at var40 643)))
(assert (= "P" (str.at var39 251)))
(assert (= "B" (str.at var16 893)))
(assert (= "!" (str.at var12 515)))
(assert (= "<" (str.at var17 425)))
(assert (= "p" (str.at var49 74)))
(assert (= "." (str.at var19 713)))
(assert (= "B" (str.at var50 364)))
(assert (= "/" (str.at var19 417)))
(assert (= "e" (str.at var35 751)))
(assert (= "X" (str.at var39 253)))
(assert (= "i" (str.at var55 238)))
(assert (= "y" (str.at var16 304)))
(assert (= "1" (str.at var5 995)))
(assert (= "'" (str.at var50 167)))
(assert (= "y" (str.at var59 721)))
(assert (= "4" (str.at var55 777)))
(assert (= "W" (str.at var5 310)))
(assert (= "M" (str.at var11 321)))
(assert (= "y" (str.at var37 325)))
(assert (= "s" (str.at var57 455)))
(assert (= "a" (str.at var19 135)))
(assert (= "I" (str.at var46 921)))
(assert (= "'" (str.at var4 459)))
(assert (= "K" (str.at var32 39)))
(assert (= "e" (str.at var0 206)))
(assert (= "x" (str.at var59 227)))
(assert (= "!" (str.at var8 935)))
(assert (= "1" (str.at var44 277)))
(assert (= "6" (str.at var38 269)))
(assert (= "l" (str.at var30 197)))
(assert (= "I" (str.at var54 297)))
(assert (= "m" (str.at var52 26)))
(assert (= "$" (str.at var49 572)))
(assert (= "," (str.at var44 901)))
(assert (= "7" (str.at var40 254)))
(assert (= "G" (str.at var14 192)))
(assert (= "N" (str.at var43 468)))
(assert (= "[" (str.at var22 929)))
(assert (= ">" (str.at var5 490)))
(assert (= "O" (str.at var60 909)))
(assert (= ")" (str.at var49 900)))
(assert (= "1" (str.at var14 184)))
(assert (= "D" (str.at var53 731)))
(assert (= "K" (str.at var56 362)))
(assert (= "/" (str.at var27 690)))
(assert (= "~" (str.at var15 273)))
(assert (= "g" (str.at var3 638)))
(assert (= "X" (str.at var1 586)))
(assert (= ">" (str.at var46 870)))
(assert (= "H" (str.at var36 343)))
(assert (= "}" (str.at var58 736)))
(assert (= "K" (str.at var8 134)))
(assert (= "f" (str.at var44 618)))
(assert (= "d" (str.at var54 2)))
(assert (= "x" (str.at var48 533)))
(assert (= "o" (str.at var18 858)))
(assert (= "9" (str.at var36 0)))
(assert (= "9" (str.at var49 611)))
(assert (= "c" (str.at var21 334)))
(assert (= "<" (str.at var22 103)))
(assert (= "c" (str.at var36 713)))
(assert (= "0" (str.at var55 123)))
(assert (= "f" (str.at var55 176)))
(assert (= "k" (str.at var25 683)))
(assert (= "S" (str.at var23 333)))
(assert (= ":" (str.at var53 507)))
(assert (= "Z" (str.at var3 128)))
(assert (= "W" (str.at var22 258)))
(assert (= ")" (str.at var28 204)))
(assert (= "8" (str.at var49 451)))
(assert (= "^" (str.at var36 964)))
(assert (= "s" (str.at var29 530)))
(assert (= "<" (str.at var29 410)))
(assert (= "/" (str.at var36 220)))
(assert (= "d" (str.at var20 601)))
(assert (= "(" (str.at var8 524)))
(assert (= "Q" (str.at var24 457)))
(assert (= "7" (str.at var19 815)))
(assert (= "9" (str.at var55 837)))
(assert (= "o" (str.at var60 715)))
(assert (= "<" (str.at var58 615)))
(assert (= ":" (str.at var42 800)))
(assert (= "I" (str.at var15 906)))
(assert (= "p" (str.at var24 61)))
(assert (= "o" (str.at var3 541)))
(assert (= "h" (str.at var30 243)))
(assert (= "=" (str.at var37 58)))
(assert (= "F" (str.at var58 172)))
(assert (= "+" (str.at var6 729)))
(assert (= "l" (str.at var34 856)))
(assert (= "`" (str.at var30 562)))
(assert (= "]" (str.at var19 121)))
(assert (= "g" (str.at var45 60)))
(assert (= "d" (str.at var11 757)))
(assert (= "L" (str.at var29 382)))
(assert (= "Q" (str.at var7 947)))
(assert (= "*" (str.at var0 865)))
(assert (= "|" (str.at var42 984)))
(assert (= "v" (str.at var15 635)))
(assert (= "D" (str.at var40 701)))
(assert (= "q" (str.at var43 32)))
(assert (= "z" (str.at var23 528)))
(assert (= "U" (str.at var25 232)))
(assert (= "V" (str.at var53 308)))
(assert (= "p" (str.at var40 564)))
(assert (= "K" (str.at var8 965)))
(assert (= "1" (str.at var26 140)))
(assert (= ";" (str.at var34 440)))
(assert (= "W" (str.at var21 223)))
(assert (= "E" (str.at var45 840)))
(assert (= "e" (str.at var51 794)))
(assert (= "$" (str.at var43 294)))
(assert (= """" (str.at var1 735)))
(assert (= "f" (str.at var49 765)))
(assert (= "i" (str.at var56 354)))
(assert (= "1" (str.at var51 726)))
(assert (= "I" (str.at var54 171)))
(assert (= "w" (str.at var16 685)))
(assert (= "M" (str.at var30 293)))
(assert (= "x" (str.at var10 208)))
(assert (= "o" (str.at var8 201)))
(assert (= "r" (str.at var53 960)))
(assert (= "g" (str.at var25 157)))
(assert (= "*" (str.at var36 532)))
(assert (= "z" (str.at var13 143)))
(assert (= "%" (str.at var14 468)))
(assert (= "p" (str.at var38 168)))
(assert (= "t" (str.at var0 913)))
(assert (= "j" (str.at var32 911)))
(assert (= "K" (str.at var49 743)))
(assert (= "T" (str.at var45 182)))
(assert (= "G" (str.at var22 663)))
(assert (= ":" (str.at var22 859)))
(assert (= "~" (str.at var42 488)))
(assert (= ")" (str.at var57 903)))
(assert (= ")" (str.at var19 2)))
(assert (= "p" (str.at var32 308)))
(assert (= "P" (str.at var46 509)))
(assert (= "S" (str.at var53 1)))
(assert (= ">" (str.at var33 297)))
(assert (= "|" (str.at var8 885)))
(assert (= "b" (str.at var35 137)))
(assert (= "N" (str.at var17 71)))
(assert (= "?" (str.at var43 627)))
(assert (= "y" (str.at var13 712)))
(assert (= "#" (str.at var33 163)))
(assert (= "d" (str.at var27 163)))
(assert (= "_" (str.at var12 151)))
(assert (= "C" (str.at var42 498)))
(assert (= "{" (str.at var31 824)))
(assert (= "_" (str.at var32 324)))
(assert (= "_" (str.at var57 378)))
(assert (= "@" (str.at var36 401)))
(assert (= "-" (str.at var46 88)))
(assert (= "v" (str.at var43 471)))
(assert (= "+" (str.at var56 590)))
(assert (= "~" (str.at var28 903)))
(assert (= "q" (str.at var10 914)))
(assert (= "a" (str.at var60 335)))
(assert (= "\\" (str.at var3 697)))
(assert (= "c" (str.at var29 781)))
(assert (= "0" (str.at var60 873)))
(assert (= "z" (str.at var52 842)))
(assert (= "%" (str.at var47 321)))
(assert (= "m" (str.at var24 752)))
(assert (= "!" (str.at var32 930)))
(assert (= "+" (str.at var14 932)))
(assert (= "V" (str.at var5 114)))
(assert (= "K" (str.at var46 928)))
(assert (= "K" (str.at var10 553)))
(assert (= "b" (str.at var46 963)))
(assert (= "M" (str.at var29 616)))
(assert (= "w" (str.at var41 221)))
(assert (= "W" (str.at var44 347)))
(assert (= "C" (str.at var8 635)))
(assert (= "7" (str.at var6 102)))
(assert (= "&" (str.at var1 102)))
(assert (= "[" (str.at var49 876)))
(assert (= "(" (str.at var2 458)))
(assert (= "7" (str.at var35 778)))
(assert (= "g" (str.at var45 945)))
(assert (= "C" (str.at var50 117)))
(assert (= "(" (str.at var28 605)))
(assert (= "2" (str.at var30 605)))
(assert (= "K" (str.at var43 304)))
(assert (= "!" (str.at var47 431)))
(assert (= "V" (str.at var4 355)))
(assert (= "7" (str.at var27 291)))
(assert (= "f" (str.at var10 491)))
(assert (= "J" (str.at var19 185)))
(assert (= "e" (str.at var0 573)))
(assert (= "u" (str.at var15 300)))
(assert (= "3" (str.at var25 347)))
(assert (= "u" (str.at var41 443)))
(assert (= "E" (str.at var53 84)))
(assert (= "q" (str.at var37 797)))
(assert (= "q" (str.at var39 815)))
(assert (= "Y" (str.at var29 700)))
(assert (= "!" (str.at var27 164)))
(assert (= ")" (str.at var11 851)))
(assert (= "m" (str.at var33 288)))
(assert (= "T" (str.at var20 676)))
(assert (= "M" (str.at var7 159)))
(assert (= "h" (str.at var50 26)))
(assert (= "Z" (str.at var18 863)))
(assert (= "l" (str.at var29 44)))
(assert (= "+" (str.at var24 855)))
(assert (= "+" (str.at var6 345)))
(assert (= "/" (str.at var35 557)))
(assert (= "v" (str.at var24 237)))
(assert (= """" (str.at var41 150)))
(assert (= "O" (str.at var28 762)))
(assert (= "6" (str.at var50 887)))
(assert (= "f" (str.at var26 833)))
(assert (= "<" (str.at var21 265)))
(assert (= "$" (str.at var38 522)))
(assert (= ";" (str.at var2 795)))
(assert (= "[" (str.at var1 911)))
(assert (= "." (str.at var19 315)))
(assert (= "[" (str.at var42 469)))
(assert (= "O" (str.at var58 469)))
(assert (= "<" (str.at var32 645)))
(assert (= "N" (str.at var0 113)))
(assert (= "s" (str.at var34 645)))
(assert (= "@" (str.at var4 234)))
(assert (= "Z" (str.at var3 855)))
(assert (= "-" (str.at var33 740)))
(assert (= "y" (str.at var60 878)))
(assert (= "U" (str.at var18 792)))
(assert (= "Z" (str.at var39 977)))
(assert (= "6" (str.at var48 681)))
(assert (= "Y" (str.at var13 893)))
(assert (= "J" (str.at var11 193)))
(assert (= "o" (str.at var29 176)))
(assert (= "I" (str.at var37 490)))
(assert (= "%" (str.at var51 650)))
(assert (= "Z" (str.at var33 781)))
(assert (= "y" (str.at var34 619)))
(assert (= "U" (str.at var54 679)))
(assert (= "e" (str.at var45 289)))
(assert (= ";" (str.at var30 263)))
(assert (= "s" (str.at var57 702)))
(assert (= "C" (str.at var3 711)))
(assert (= "s" (str.at var8 478)))
(assert (= "B" (str.at var7 449)))
(assert (= "%" (str.at var23 983)))
(assert (= "L" (str.at var50 18)))
(assert (= "%" (str.at var59 105)))
(assert (= ">" (str.at var51 583)))
(assert (= "J" (str.at var33 21)))
(assert (= "[" (str.at var56 604)))
(assert (= "d" (str.at var31 631)))
(assert (= "!" (str.at var42 523)))
(assert (= "h" (str.at var60 380)))
(assert (= "8" (str.at var28 227)))
(assert (= "G" (str.at var7 857)))
(assert (= "3" (str.at var58 667)))
(assert (= "s" (str.at var1 592)))
(assert (= "X" (str.at var14 552)))
(assert (= "y" (str.at var45 178)))
(assert (= "a" (str.at var57 429)))
(assert (= "6" (str.at var2 170)))
(assert (= "k" (str.at var2 37)))
(assert (= "%" (str.at var31 817)))
(assert (= ">" (str.at var14 443)))
(assert (= "V" (str.at var34 969)))
(assert (= "6" (str.at var52 622)))
(assert (= "!" (str.at var28 234)))
(assert (= "F" (str.at var42 593)))
(assert (= "c" (str.at var11 629)))
(assert (= "f" (str.at var24 355)))
(assert (= "(" (str.at var46 898)))
(assert (= "Q" (str.at var34 860)))
(assert (= "B" (str.at var24 257)))
(assert (= "+" (str.at var11 156)))
(assert (= "@" (str.at var14 391)))
(assert (= "?" (str.at var23 576)))
(assert (= "{" (str.at var19 45)))
(assert (= "8" (str.at var4 34)))
(assert (= "6" (str.at var52 628)))
(assert (= "Y" (str.at var12 182)))
(assert (= "e" (str.at var12 525)))
(assert (= "3" (str.at var0 655)))
(assert (= "p" (str.at var28 745)))
(assert (= "O" (str.at var9 937)))
(assert (= "#" (str.at var16 563)))
(assert (= "T" (str.at var8 260)))
(assert (= "o" (str.at var43 273)))
(assert (= "C" (str.at var23 599)))
(assert (= "*" (str.at var44 239)))
(assert (= "e" (str.at var29 862)))
(assert (= "Z" (str.at var33 537)))
(assert (= "D" (str.at var54 280)))
(assert (= "]" (str.at var10 472)))
(assert (= "g" (str.at var7 827)))
(assert (= "f" (str.at var40 550)))
(assert (= "y" (str.at var20 563)))
(assert (= "h" (str.at var60 600)))
(assert (= "p" (str.at var31 121)))
(assert (= "v" (str.at var32 237)))
(assert (= "B" (str.at var41 800)))
(assert (= "3" (str.at var12 382)))
(assert (= "D" (str.at var31 662)))
(assert (= "j" (str.at var0 939)))
(assert (= "T" (str.at var27 420)))
(assert (= "'" (str.at var48 585)))
(assert (= "\\" (str.at var26 580)))
(assert (= "'" (str.at var9 299)))
(assert (= "." (str.at var35 475)))
(assert (= "Y" (str.at var43 889)))
(assert (= "E" (str.at var25 782)))
(assert (= "J" (str.at var2 710)))
(assert (= "$" (str.at var56 883)))
(assert (= "I" (str.at var28 363)))
(assert (= "t" (str.at var23 385)))
(assert (= "K" (str.at var60 431)))
(assert (= "E" (str.at var45 332)))
(assert (= "5" (str.at var9 768)))
(assert (= "e" (str.at var36 420)))
(assert (= "&" (str.at var47 591)))
(assert (= "l" (str.at var38 277)))
(assert (= "j" (str.at var8 568)))
(assert (= ">" (str.at var9 431)))
(assert (= "Y" (str.at var13 517)))
(assert (= "X" (str.at var48 125)))
(assert (= "m" (str.at var55 97)))
(assert (= "m" (str.at var6 439)))
(assert (= "y" (str.at var24 25)))
(assert (= "k" (str.at var60 698)))
(assert (= "/" (str.at var52 583)))
(check-sat)